c Random 9-CNF over 30 variables and 270 clauses
c Generated with `cnfgen`
c (C) 2012-2016 Massimo Lauria <lauria.massimo@gmail.com>
c https://massimolauria.github.io/cnfgen
c
c COMMAND LINE: cnfgen --output tmp-9-30-270.dimacs --output-format dimacs randkcnf 9 30 270
c
c sdimacs generated by gen-sdimacs
c
p cnf 30 270
e 16 17 18 19 20 21 22 23 24 25 26 27 28 29 30 0
r 0.37 1 2 3 4 5 6 7 8 9 10 11 12 13 14 15 0
-2 -6 15 -20 -21 22 24 25 -27 0
1 10 -11 12 17 -22 24 -26 27 0
3 7 8 9 11 -14 16 27 29 0
5 -8 -12 -15 16 -19 23 -24 29 0
-5 10 12 -13 -14 -15 18 19 21 0
-1 4 6 -12 -13 -14 -17 -24 28 0
1 -2 4 6 8 9 11 -19 -20 0
-6 8 -14 16 -17 -19 -20 23 24 0
-4 -6 8 -11 -12 -13 -15 -22 27 0
-4 6 7 10 -13 -14 -21 -27 30 0
-1 -5 -10 13 15 -20 -21 22 26 0
-4 -9 -12 15 17 21 -22 -25 -28 0
-1 5 -14 -15 -18 24 25 26 29 0
-3 5 -7 8 -10 -11 15 -16 -28 0
-1 2 4 -8 18 19 -20 -27 -30 0
1 4 -9 10 -12 21 25 26 28 0
-3 6 13 14 -22 24 25 -27 30 0
-1 4 9 -19 20 -21 -24 -27 -29 0
-2 -3 4 -6 -11 -12 14 -19 27 0
-3 10 19 20 -22 -23 -26 -28 -30 0
7 10 -11 -16 -17 18 20 -23 -30 0
2 -3 4 6 -7 -13 -19 -21 22 0
3 -5 6 -7 16 -21 27 28 30 0
1 -6 9 -12 13 18 -19 26 -30 0
-1 2 16 -19 23 24 26 27 30 0
-5 -6 -7 -8 -9 14 18 -21 26 0
-7 8 -15 16 -18 19 -23 -26 -28 0
-3 -4 -8 10 -12 17 18 21 -23 0
3 -10 -11 12 -13 -24 26 -27 -29 0
-2 -4 6 -8 -13 20 22 -26 -27 0
-3 4 6 8 -12 20 -27 28 30 0
-4 9 -18 -19 24 -25 -26 -28 29 0
-2 -8 -11 -16 17 18 25 -29 -30 0
6 -13 -15 16 -23 -24 -26 -27 -29 0
-5 -6 -10 -13 -14 -20 -26 -28 -29 0
-1 2 -3 -5 -7 -13 17 -23 -25 0
-1 5 -11 13 15 18 22 -29 -30 0
1 -2 5 -6 8 -19 26 -28 -30 0
-2 -6 -7 9 -19 -23 24 25 30 0
-1 6 -9 -11 12 16 22 24 -26 0
1 7 -9 -11 -14 17 -21 22 -30 0
-2 4 -5 10 -11 -14 18 -19 -24 0
1 2 -3 -5 11 12 20 -24 28 0
-9 15 17 -19 20 -22 -23 24 30 0
-3 -5 -12 13 -16 19 -20 21 27 0
9 -14 -17 -18 23 25 26 28 -29 0
2 -4 -8 -13 16 -17 -18 28 30 0
-6 -7 8 -15 -16 17 19 24 25 0
-2 3 6 -7 -17 23 24 27 -29 0
2 3 -7 10 -16 17 -25 29 -30 0
1 8 16 17 -18 -21 -24 26 27 0
3 5 8 9 20 25 27 -29 -30 0
-7 -12 13 -16 -21 27 -28 -29 30 0
-1 2 4 19 20 24 25 27 -29 0
-1 4 -6 8 11 -15 16 19 -23 0
1 -4 7 -8 12 -18 -19 28 -29 0
-1 2 9 12 15 21 -22 -24 -28 0
-1 4 9 -12 -20 22 -23 24 -30 0
1 8 -10 -12 -13 -15 -17 26 -28 0
-2 4 -6 10 12 17 24 25 30 0
2 -3 4 7 8 -9 12 22 -26 0
2 3 4 -6 7 -9 21 22 -30 0
-4 -5 -6 -10 -16 19 27 29 -30 0
-2 -4 -6 -11 17 20 22 24 30 0
2 -5 10 13 16 -24 25 28 -30 0
2 3 14 -17 -22 -23 24 26 -28 0
-3 11 -15 -19 20 22 -23 29 -30 0
5 8 -10 16 -20 -22 24 26 -28 0
-2 -3 6 7 15 17 -22 23 -28 0
5 8 -13 16 18 19 -25 28 -29 0
1 2 -5 8 11 -13 -16 20 -23 0
7 -9 10 -16 -18 -20 21 26 29 0
-1 6 -10 16 -17 -23 25 27 -29 0
2 -3 -11 15 -16 20 27 28 29 0
1 4 -11 16 18 -21 28 29 -30 0
-5 -6 -11 -13 20 -22 -23 27 -28 0
-9 12 -14 15 20 21 23 25 26 0
3 -12 13 -16 18 21 -23 25 -26 0
2 3 -7 11 14 -18 -19 -22 -26 0
-4 8 13 -16 19 20 21 -22 -25 0
-3 4 7 -14 20 -22 24 -25 -29 0
-2 4 -6 -10 19 -22 -23 25 -28 0
-4 -5 6 9 -17 -20 26 27 -30 0
-2 4 -13 21 -23 -24 -25 -26 30 0
-2 5 -14 -18 20 22 -24 -26 -27 0
6 9 -11 13 17 22 -23 26 -30 0
-3 6 13 -18 23 24 -25 26 29 0
3 4 17 -19 -22 -23 -24 25 -30 0
2 3 -5 7 -13 -14 -17 -20 27 0
-2 -3 7 -8 -10 16 19 24 29 0
-1 -3 6 -10 14 16 17 25 27 0
-4 6 11 15 18 -22 24 25 -29 0
3 5 -6 -7 8 14 -19 21 -27 0
1 -5 -12 -15 17 18 23 -26 -29 0
2 5 6 15 -19 22 -26 -28 -30 0
-2 5 13 -14 -18 23 26 29 30 0
3 4 9 12 15 18 -22 29 -30 0
1 5 -6 -7 10 12 17 -19 22 0
-2 3 -4 7 9 -10 14 25 -29 0
4 7 8 -9 10 -16 22 24 -28 0
6 -8 11 -14 -17 -20 26 -27 -28 0
-5 -6 9 10 12 14 -16 25 28 0
-1 2 5 -10 -14 17 24 -27 28 0
1 -2 -4 6 -9 11 -12 -13 -29 0
12 -14 15 -16 -20 23 -27 -28 -29 0
-2 -4 6 -7 -12 -18 19 -20 28 0
5 -16 17 -20 21 -23 -24 26 -28 0
-2 3 4 -10 -13 -20 25 -26 -30 0
5 6 8 -13 -16 -17 -18 20 -22 0
-2 -6 -9 -10 -15 -23 -27 -28 29 0
-1 -4 9 13 -15 -16 -25 26 29 0
3 4 -6 -12 -19 -20 24 26 29 0
-3 -7 8 -10 -11 -12 15 20 26 0
2 3 9 15 17 -19 -20 -24 27 0
2 -4 5 -7 9 -19 20 25 27 0
3 7 -9 -10 16 -18 -23 -25 -30 0
-1 -3 -7 -10 -13 -16 -18 28 30 0
2 -3 4 13 14 -15 -19 20 24 0
-8 9 11 13 15 -17 21 -22 -30 0
-1 -5 6 -14 -17 -20 -23 -24 -25 0
-1 -7 10 -15 -19 -20 25 -27 -29 0
2 -3 -4 -10 -11 13 14 19 24 0
-1 -3 -5 8 -11 -13 17 19 29 0
1 -3 -4 -14 20 -21 -22 23 26 0
2 3 -15 -18 21 22 -23 -24 -27 0
-1 -2 7 10 16 17 -24 25 27 0
1 -3 -6 8 -13 14 17 22 26 0
5 15 16 -18 -19 20 -26 -27 30 0
2 5 -11 -15 -18 -20 21 22 29 0
-4 -5 -9 12 14 15 19 26 29 0
-2 -3 4 -5 7 -9 -11 19 -22 0
2 6 11 12 -25 26 -27 -28 -29 0
2 -11 -13 19 -21 23 -25 -26 27 0
-1 3 5 -14 -19 -21 23 29 -30 0
-1 -2 -6 -11 15 -16 17 -23 -28 0
1 -7 9 13 16 21 -26 27 -29 0
-3 5 -14 -17 -18 20 -26 27 -30 0
4 10 13 14 17 -18 -23 26 28 0
-2 -11 16 19 20 -21 24 26 30 0
2 3 -5 -7 -13 -19 -21 -22 26 0
-3 5 6 -9 11 -23 27 28 29 0
-2 3 -4 15 16 -18 22 -27 30 0
1 4 -17 20 21 -23 -25 27 28 0
3 -6 -9 12 -15 -23 -25 -26 -27 0
7 9 14 -17 21 22 -24 25 30 0
7 -8 -10 11 13 18 22 23 -25 0
6 -8 -17 18 20 -22 25 26 28 0
-3 -4 -7 -10 16 -17 21 -23 -27 0
-1 7 -9 -12 13 15 20 -21 26 0
4 6 -13 15 -17 18 24 -27 -29 0
-1 -3 9 -14 15 -16 18 25 -30 0
-1 -2 -3 4 8 11 -17 22 -27 0
2 -4 5 -13 14 -17 -19 -23 -28 0
4 6 7 9 -18 19 -20 -22 28 0
4 -6 10 13 -17 20 21 -25 30 0
4 5 6 9 -10 13 17 -24 27 0
3 4 14 -15 17 -19 23 26 29 0
7 9 -10 15 19 21 -23 27 -30 0
3 -10 -12 -16 -21 22 -24 -28 -29 0
-4 -7 8 10 -16 19 21 -23 -24 0
8 -14 -17 18 -21 -24 -27 29 30 0
-2 -6 8 -10 -11 -19 -23 25 29 0
9 -16 -17 -19 20 -21 -24 -26 28 0
-1 2 7 -17 -21 -22 23 -29 30 0
-3 5 -6 12 14 15 -24 -28 -30 0
2 -5 6 13 -17 19 23 -26 -30 0
-3 7 9 -18 -22 23 -26 28 -29 0
-5 -6 7 -8 -10 -18 -19 26 29 0
-4 5 6 7 8 13 -19 22 29 0
-1 -7 -9 -14 15 -16 19 -22 -28 0
-4 -6 9 13 21 -22 -26 -28 -29 0
-2 5 8 -11 -17 19 21 22 25 0
4 -7 -16 17 -18 19 23 28 29 0
-1 -3 -10 12 13 -16 18 20 21 0
-5 -6 -7 13 16 -18 20 21 24 0
-4 -6 11 12 -14 16 -26 29 30 0
-7 -9 10 13 15 -22 -26 -28 -30 0
6 12 -13 -14 -17 20 22 -24 -25 0
1 -2 -3 -7 -9 10 15 19 21 0
4 9 -11 -12 18 -19 24 27 -29 0
-5 6 -7 12 17 20 -21 -27 -28 0
-1 -10 -13 -14 15 18 20 23 29 0
-3 -4 -6 -11 12 -13 -15 -21 -24 0
1 7 -12 -14 15 16 -19 -24 26 0
-1 3 -4 -5 6 14 16 27 28 0
-1 5 10 11 13 19 -20 26 28 0
-3 -5 6 -8 15 20 21 22 23 0
-1 2 -3 12 -13 -18 -20 -21 -25 0
8 -10 11 17 -19 -22 -23 28 -30 0
-2 5 -7 -10 11 12 -27 -29 -30 0
-1 2 10 -13 -16 -19 -21 -24 -27 0
4 6 -8 -10 -11 22 24 29 30 0
1 -3 -8 -15 17 -20 -22 28 -29 0
4 -5 -8 10 -15 23 -26 27 30 0
2 4 -7 -8 -9 -12 -17 23 -30 0
-4 -6 8 11 -13 -20 -21 23 -29 0
6 7 9 -10 12 -15 18 26 28 0
3 4 -8 13 14 -16 -17 24 30 0
-6 8 10 13 20 21 -23 -24 30 0
2 -3 -11 -12 -15 19 20 -24 -26 0
-3 -5 11 12 -19 22 25 26 28 0
2 -7 10 11 14 18 19 22 26 0
-4 -5 -7 -11 17 -19 -21 -22 23 0
-1 -2 -10 -13 -15 18 20 -21 29 0
-1 -6 9 10 -11 18 -21 25 -26 0
-5 11 12 14 19 22 -23 -26 -29 0
4 -5 -6 7 -11 18 -19 -22 -30 0
-4 5 13 -15 -16 20 -22 -26 -27 0
3 -6 7 10 12 -19 -24 26 -28 0
-5 -8 10 -12 -13 19 -22 -24 -26 0
-4 -11 -13 17 -20 -21 -22 -26 28 0
1 -2 -5 12 -17 19 -21 24 -29 0
-1 8 -10 -14 17 -19 -21 25 -26 0
1 9 11 12 -13 -17 -19 -21 27 0
-1 3 -5 8 -9 16 -24 25 -27 0
-2 -4 5 -6 7 8 -14 15 25 0
-3 -7 -12 -16 -18 19 20 21 30 0
-2 3 5 6 -9 -17 25 -28 -29 0
-4 7 8 14 -17 -22 23 -28 -30 0
-1 3 11 16 20 22 25 -26 -28 0
1 2 -9 -12 14 21 -26 -28 -29 0
6 14 15 -16 20 22 -24 -25 -26 0
5 8 -10 -14 -16 17 -20 -22 -23 0
4 6 -7 10 -14 -16 -19 21 26 0
-1 2 5 11 -12 -16 24 25 -27 0
5 -11 -12 20 -22 24 -25 26 -27 0
4 -6 7 -9 -11 -12 13 -14 -26 0
3 4 8 11 12 13 -15 23 24 0
7 -10 11 12 -14 -16 -19 22 -25 0
-2 3 -6 -10 15 -17 21 24 26 0
6 -7 10 18 -20 22 23 25 26 0
-3 -7 17 22 -24 26 -27 29 30 0
-2 5 11 15 -17 20 24 28 29 0
6 -7 -8 -13 -14 -16 -21 -23 -25 0
1 -8 13 14 -15 -21 -26 28 -30 0
10 12 -16 -17 18 -19 -20 23 28 0
3 -7 -15 -18 19 -20 -25 29 -30 0
1 -3 -4 13 -15 16 20 -24 -28 0
-2 -3 5 -7 13 -15 -21 -24 -30 0
3 6 8 12 16 17 20 24 -26 0
1 12 -13 17 -18 -20 21 22 -26 0
1 -2 -11 -13 -15 16 -18 -26 28 0
-1 3 -4 10 17 25 26 -27 29 0
-2 -7 -11 13 14 17 -23 26 -29 0
1 2 -14 -17 -19 20 22 27 -29 0
1 -3 8 -15 17 -18 24 26 -30 0
-1 -2 -7 12 -13 -14 -17 -23 -29 0
5 -6 8 14 -15 17 19 -22 27 0
-6 -10 11 -13 14 15 -20 -22 -30 0
1 -6 9 11 -14 24 -25 -27 -30 0
6 15 -16 -22 25 -26 27 28 -29 0
1 -6 13 -14 20 -22 -26 27 28 0
2 4 -11 -16 18 -23 27 28 -30 0
1 2 7 14 18 -20 -24 26 28 0
-2 -6 10 11 17 -19 21 -26 28 0
1 2 6 -8 -11 -20 22 -25 29 0
3 -7 10 -13 14 -20 -21 -24 26 0
2 -6 9 10 -18 -21 24 -25 -29 0
-7 8 -12 -14 -21 22 -23 26 30 0
12 -13 -14 18 -21 -22 -27 -28 -30 0
-3 12 -15 -17 19 -21 -26 -28 -29 0
3 7 -14 16 -19 -20 21 -28 -30 0
1 -2 6 8 10 -11 -17 26 -29 0
3 -6 -10 -11 13 -15 16 25 -30 0
-1 4 10 -13 -17 18 21 22 25 0
1 3 12 15 16 21 -24 -25 -30 0
2 -9 -13 15 -19 -20 21 23 -25 0
1 -4 12 15 -21 23 26 -27 30 0
-2 10 14 15 18 -20 27 -29 -30 0
1 -4 -6 12 -14 -19 23 24 26 0
